606
1 0 5 506 1 523 1 522 1 520 1 505 1
2 0 5 296 1 115 1 417 1 118 1 262 1
3 0 5 53 1 151 1 201 1 76 1 463 1
4 0 5 290 1 460 1 214 1 58 1 468 1
5 0 5 380 1 21 1 15 1 190 1 350 1
6 0 5 150 1 386 1 433 1 362 1 24 1
7 0 5 377 1 160 1 102 1 207 1 445 1
8 0 5 394 1 169 1 427 1 229 1 241 1
9 0 5 289 1 320 1 374 1 257 1 95 1
10 0 5 94 1 150 1 222 1 386 1 286 1
11 0 5 24 1 153 1 362 1 247 1 97 1
12 0 5 121 1 164 1 410 1 388 1 228 1
13 0 5 348 1 420 1 85 1 341 1 385 1
14 0 5 108 1 375 1 195 1 338 1 240 1
15 0 5 186 1 225 1 184 1 5 1 190 1
16 0 5 44 1 160 1 287 1 197 1 102 1
17 0 5 441 1 462 1 261 1 165 1 147 1
18 0 5 246 1 214 1 242 1 224 1 140 1
19 0 5 271 1 110 1 429 1 62 1 98 1
20 0 5 379 1 270 1 432 1 232 1 242 1
21 0 5 5 1 161 1 190 1 380 1 239 1
22 0 5 293 1 337 1 419 1 84 1 135 1
23 0 5 437 1 176 1 62 1 369 1 195 1
24 0 5 11 1 153 1 97 1 362 1 247 1
25 0 5 213 1 53 1 151 1 318 1 416 1
26 0 5 330 1 357 1 469 1 305 1 181 1
27 0 5 347 1 327 1 363 1 106 1 381 1
28 0 5 328 1 35 1 171 1 370 1 447 1
29 0 5 226 1 305 1 200 1 436 1 112 1
30 0 5 94 1 222 1 10 1 264 1 453 1
31 0 5 67 1 412 1 45 1 80 1 170 1
32 0 5 57 1 128 1 40 1 238 1 73 1
33 0 5 303 1 452 1 441 1 414 1 17 1
34 0 5 380 1 350 1 306 1 422 1 5 1
35 0 5 171 1 370 1 328 1 28 1 283 1
36 0 5 391 1 418 1 344 1 442 1 68 1
37 0 5 285 1 370 1 91 1 403 1 206 1
38 0 5 297 1 159 1 260 1 274 1 229 1
39 0 5 353 1 219 1 60 1 75 1 390 1
40 0 5 32 1 128 1 302 1 238 1 137 1
41 0 5 322 1 50 1 444 1 392 1 396 1
42 0 5 364 1 143 1 408 1 234 1 400 1
43 0 5 355 1 398 1 210 1 275 1 78 1
44 0 5 16 1 197 1 160 1 102 1 245 1
45 0 5 80 1 393 1 31 1 73 1 319 1
46 0 5 319 1 73 1 323 1 382 1 74 1
47 0 5 278 1 307 1 175 1 397 1 138 1
48 0 5 470 1 512 1 505 1 518 1 517 1
49 0 5 442 1 68 1 178 1 108 1 99 1
50 0 5 396 1 41 1 444 1 322 1 392 1
51 0 5 312 1 109 1 352 1 144 1 307 1
52 0 5 189 1 68 1 211 1 136 1 66 1
53 0 5 3 1 25 1 151 1 213 1 76 1
54 0 5 367 1 256 1 298 1 254 1 342 1
55 0 5 130 1 187 1 208 1 417 1 190 1
56 0 5 77 1 239 1 154 1 315 1 155 1
57 0 5 32 1 80 1 272 1 425 1 128 1
58 0 5 321 1 290 1 92 1 155 1 161 1
59 0 5 206 1 146 1 144 1 76 1 105 1
60 0 5 390 1 39 1 353 1 170 1 393 1
61 0 5 469 1 254 1 181 1 70 1 291 1
62 0 5 424 1 437 1 23 1 19 1 369 1
63 0 5 162 1 71 1 345 1 88 1 406 1
64 0 5 122 1 237 1 413 1 245 1 311 1
65 0 5 101 1 464 1 128 1 368 1 9 1
66 0 5 68 1 136 1 111 1 49 1 36 1
67 0 5 31 1 170 1 393 1 80 1 45 1
68 0 5 49 1 66 1 189 1 282 1 442 1
69 0 5 395 1 282 1 375 1 68 1 211 1
70 0 5 339 1 469 1 399 1 61 1 254 1
71 0 5 88 1 63 1 345 1 162 1 260 1
72 0 5 396 1 444 1 201 1 76 1 3 1
73 0 5 323 1 46 1 45 1 319 1 32 1
74 0 5 319 1 382 1 287 1 46 1 440 1
75 0 5 353 1 151 1 39 1 401 1 236 1
76 0 5 435 1 146 1 201 1 53 1 3 1
77 0 5 315 1 154 1 56 1 321 1 239 1
78 0 5 210 1 275 1 156 1 81 1 450 1
79 0 5 182 1 302 1 137 1 212 1 238 1
80 0 5 425 1 45 1 57 1 31 1 412 1
81 0 5 324 1 450 1 78 1 288 1 87 1
82 0 5 281 1 103 1 238 1 453 1 128 1
83 0 5 371 1 304 1 268 1 433 1 262 1
84 0 5 419 1 135 1 93 1 117 1 337 1
85 0 5 385 1 428 1 408 1 13 1 348 1
86 0 5 209 1 430 1 360 1 317 1 400 1
87 0 5 132 1 224 1 157 1 156 1 450 1
88 0 5 71 1 260 1 162 1 63 1 38 1
89 0 5 291 1 181 1 357 1 293 1 384 1
90 0 5 159 1 274 1 180 1 38 1 260 1
91 0 5 403 1 37 1 206 1 285 1 179 1
92 0 5 161 1 290 1 190 1 58 1 21 1
93 0 5 117 1 177 1 381 1 455 1 148 1
94 0 5 30 1 10 1 264 1 257 1 150 1
95 0 5 217 1 320 1 9 1 152 1 223 1
96 0 5 279 1 258 1 300 1 308 1 406 1
97 0 5 301 1 153 1 433 1 247 1 24 1
98 0 5 387 1 308 1 335 1 19 1 271 1
99 0 5 358 1 442 1 112 1 108 1 178 1
100 0 5 448 1 276 1 309 1 200 1 347 1
101 0 5 65 1 125 1 368 1 464 1 289 1
102 0 5 207 1 160 1 245 1 16 1 197 1
103 0 5 82 1 281 1 212 1 453 1 286 1
104 0 5 183 1 185 1 382 1 46 1 231 1
105 0 5 316 1 310 1 351 1 59 1 144 1
106 0 5 239 1 363 1 27 1 204 1 347 1
107 0 5 149 1 378 1 266 1 391 1 438 1
108 0 5 253 1 14 1 338 1 99 1 331 1
109 0 5 144 1 51 1 352 1 278 1 312 1
110 0 5 429 1 19 1 116 1 346 1 166 1
111 0 5 136 1 66 1 202 1 68 1 52 1
112 0 5 99 1 358 1 108 1 334 1 338 1
113 0 5 443 1 322 1 366 1 173 1 373 1
114 0 5 123 1 174 1 446 1 179 1 131 1
115 0 5 359 1 2 1 140 1 118 1 252 1
116 0 5 251 1 166 1 110 1 459 1 326 1
117 0 5 93 1 135 1 381 1 337 1 349 1
118 0 5 359 1 259 1 376 1 184 1 423 1
119 0 5 265 1 389 1 177 1 333 1 249 1
120 0 5 138 1 172 1 295 1 385 1 175 1
121 0 5 12 1 388 1 332 1 410 1 345 1
122 0 5 64 1 237 1 245 1 413 1 311 1
123 0 5 114 1 446 1 343 1 449 1 288 1
124 0 5 402 1 198 1 325 1 431 1 256 1
125 0 5 101 1 272 1 128 1 57 1 65 1
126 0 5 456 1 169 1 261 1 372 1 414 1
127 0 5 147 1 372 1 216 1 454 1 261 1
128 0 5 32 1 40 1 65 1 125 1 57 1
129 0 5 178 1 253 1 108 1 99 1 14 1
130 0 5 55 1 190 1 208 1 252 1 92 1
131 0 5 365 1 179 1 447 1 174 1 370 1
132 0 5 361 1 87 1 133 1 224 1 157 1
133 0 5 221 1 132 1 460 1 266 1 418 1
134 0 5 202 1 136 1 458 1 111 1 233 1
135 0 5 84 1 419 1 337 1 117 1 349 1
136 0 5 111 1 66 1 68 1 52 1 215 1
137 0 5 79 1 182 1 40 1 185 1 371 1
138 0 5 120 1 295 1 175 1 47 1 397 1
139 0 5 145 1 377 1 188 1 275 1 445 1
140 0 5 252 1 417 1 242 1 18 1 359 1
141 0 5 220 1 342 1 367 1 198 1 254 1
142 0 5 397 1 295 1 47 1 144 1 278 1
143 0 5 408 1 42 1 385 1 400 1 172 1
144 0 5 109 1 278 1 51 1 59 1 312 1
145 0 5 139 1 377 1 188 1 275 1 445 1
146 0 5 310 1 76 1 435 1 59 1 53 1
147 0 5 127 1 273 1 465 1 165 1 17 1
148 0 5 381 1 455 1 218 1 93 1 204 1
149 0 5 344 1 107 1 391 1 266 1 378 1
150 0 5 6 1 362 1 10 1 94 1 386 1
151 0 5 75 1 3 1 25 1 53 1 401 1
152 0 5 374 1 257 1 223 1 9 1 320 1
153 0 5 24 1 11 1 97 1 247 1 362 1
154 0 5 321 1 77 1 56 1 155 1 315 1
155 0 5 321 1 154 1 292 1 192 1 58 1
156 0 5 224 1 87 1 132 1 450 1 78 1
157 0 5 415 1 418 1 87 1 450 1 132 1
158 0 5 336 1 204 1 239 1 218 1 106 1
159 0 5 90 1 274 1 38 1 297 1 260 1
160 0 5 7 1 102 1 197 1 44 1 16 1
161 0 5 92 1 190 1 21 1 58 1 321 1
162 0 5 63 1 71 1 88 1 406 1 345 1
163 0 5 285 1 206 1 196 1 370 1 295 1
164 0 5 410 1 12 1 228 1 388 1 294 1
165 0 5 273 1 462 1 408 1 17 1 147 1
166 0 5 459 1 251 1 116 1 167 1 420 1
167 0 5 457 1 166 1 116 1 459 1 251 1
168 0 5 311 1 413 1 237 1 245 1 194 1
169 0 5 126 1 427 1 414 1 8 1 372 1
170 0 5 390 1 67 1 393 1 31 1 80 1
171 0 5 328 1 314 1 283 1 35 1 407 1
172 0 5 385 1 120 1 143 1 295 1 138 1
173 0 5 322 1 373 1 113 1 444 1 443 1
174 0 5 365 1 179 1 114 1 131 1 123 1
175 0 5 307 1 317 1 360 1 138 1 47 1
176 0 5 369 1 23 1 195 1 375 1 62 1
177 0 5 265 1 389 1 93 1 455 1 119 1
178 0 5 129 1 49 1 375 1 99 1 253 1
179 0 5 131 1 403 1 174 1 365 1 370 1
180 0 5 313 1 90 1 274 1 461 1 297 1
181 0 5 291 1 89 1 61 1 26 1 357 1
182 0 5 286 1 79 1 212 1 137 1 433 1
183 0 5 104 1 231 1 185 1 382 1 46 1
184 0 5 191 1 186 1 15 1 350 1 423 1
185 0 5 104 1 231 1 194 1 183 1 137 1
186 0 5 15 1 225 1 184 1 5 1 190 1
187 0 5 208 1 55 1 417 1 242 1 252 1
188 0 5 275 1 139 1 145 1 398 1 210 1
189 0 5 52 1 211 1 282 1 68 1 66 1
190 0 5 161 1 21 1 130 1 15 1 92 1
191 0 5 422 1 184 1 350 1 423 1 376 1
192 0 5 292 1 460 1 244 1 155 1 347 1
193 0 5 411 1 318 1 404 1 25 1 316 1
194 0 5 185 1 231 1 413 1 268 1 168 1
195 0 5 375 1 176 1 14 1 439 1 369 1
196 0 5 295 1 341 1 163 1 348 1 206 1
197 0 5 160 1 44 1 16 1 245 1 443 1
198 0 5 367 1 240 1 124 1 220 1 399 1
199 0 5 440 1 299 1 443 1 287 1 267 1
200 0 5 29 1 448 1 226 1 334 1 305 1
201 0 5 3 1 76 1 463 1 53 1 151 1
202 0 5 233 1 136 1 111 1 66 1 415 1
203 0 5 248 1 227 1 316 1 416 1 411 1
204 0 5 363 1 158 1 106 1 148 1 239 1
205 0 5 307 1 352 1 47 1 278 1 317 1
206 0 5 163 1 285 1 196 1 59 1 295 1
207 0 5 102 1 432 1 445 1 245 1 160 1
208 0 5 187 1 55 1 417 1 130 1 190 1
209 0 5 317 1 86 1 430 1 400 1 360 1
210 0 5 398 1 78 1 355 1 43 1 275 1
211 0 5 282 1 189 1 369 1 395 1 69 1
212 0 5 286 1 103 1 182 1 79 1 386 1
213 0 5 318 1 25 1 435 1 53 1 411 1
214 0 5 468 1 18 1 4 1 224 1 361 1
215 0 5 269 1 235 1 418 1 36 1 136 1
216 0 5 326 1 346 1 127 1 454 1 110 1
217 0 5 95 1 257 1 320 1 223 1 94 1
218 0 5 336 1 333 1 249 1 455 1 148 1
219 0 5 451 1 39 1 284 1 236 1 75 1
220 0 5 141 1 342 1 198 1 399 1 367 1
221 0 5 460 1 133 1 266 1 192 1 244 1
222 0 5 30 1 10 1 286 1 212 1 386 1
223 0 5 264 1 257 1 152 1 9 1 374 1
224 0 5 87 1 361 1 156 1 132 1 18 1
225 0 5 186 1 15 1 252 1 190 1 184 1
226 0 5 436 1 29 1 305 1 330 1 200 1
227 0 5 416 1 248 1 404 1 203 1 193 1
228 0 5 294 1 388 1 164 1 410 1 431 1
229 0 5 394 1 260 1 297 1 38 1 8 1
230 0 5 454 1 372 1 383 1 466 1 169 1
231 0 5 413 1 185 1 194 1 183 1 382 1
232 0 5 432 1 20 1 311 1 245 1 168 1
233 0 5 202 1 288 1 136 1 415 1 324 1
234 0 5 329 1 462 1 408 1 143 1 42 1
235 0 5 269 1 418 1 215 1 36 1 136 1
236 0 5 401 1 434 1 451 1 75 1 404 1
237 0 5 64 1 413 1 122 1 168 1 245 1
238 0 5 302 1 82 1 103 1 79 1 40 1
239 0 5 315 1 106 1 56 1 158 1 204 1
240 0 5 198 1 399 1 14 1 431 1 124 1
241 0 5 277 1 405 1 452 1 8 1 169 1
242 0 5 140 1 270 1 18 1 187 1 246 1
243 0 5 384 1 357 1 436 1 89 1 330 1
244 0 5 334 1 192 1 438 1 292 1 347 1
245 0 5 122 1 102 1 413 1 311 1 237 1
246 0 5 18 1 242 1 270 1 140 1 224 1
247 0 5 306 1 362 1 153 1 97 1 301 1
248 0 5 203 1 227 1 416 1 318 1 25 1
249 0 5 333 1 218 1 389 1 455 1 119 1
250 0 5 373 1 199 1 299 1 463 1 354 1
251 0 5 116 1 166 1 459 1 326 1 420 1
252 0 5 140 1 417 1 359 1 225 1 55 1
253 0 5 129 1 108 1 178 1 14 1 49 1
254 0 5 61 1 342 1 291 1 399 1 70 1
255 0 5 366 1 392 1 41 1 322 1 113 1
256 0 5 298 1 54 1 367 1 124 1 198 1
257 0 5 217 1 223 1 152 1 9 1 94 1
258 0 5 96 1 279 1 300 1 421 1 406 1
259 0 5 301 1 118 1 376 1 97 1 423 1
260 0 5 88 1 297 1 229 1 38 1 71 1
261 0 5 372 1 441 1 126 1 414 1 17 1
262 0 5 268 1 379 1 194 1 2 1 232 1
263 0 5 356 1 426 1 427 1 394 1 162 1
264 0 5 223 1 453 1 94 1 374 1 103 1
265 0 5 119 1 177 1 389 1 455 1 249 1
266 0 5 107 1 438 1 221 1 378 1 149 1
267 0 5 393 1 287 1 299 1 440 1 74 1
268 0 5 262 1 83 1 304 1 194 1 371 1
269 0 5 235 1 215 1 418 1 157 1 136 1
270 0 5 20 1 242 1 432 1 18 1 379 1
271 0 5 335 1 19 1 439 1 437 1 429 1
272 0 5 125 1 425 1 57 1 412 1 80 1
273 0 5 165 1 147 1 465 1 428 1 17 1
274 0 5 90 1 159 1 180 1 38 1 297 1
275 0 5 188 1 210 1 398 1 78 1 43 1
276 0 5 309 1 100 1 349 1 347 1 327 1
277 0 5 280 1 241 1 340 1 452 1 414 1
278 0 5 144 1 47 1 109 1 307 1 205 1
279 0 5 96 1 258 1 383 1 308 1 406 1
280 0 5 277 1 340 1 414 1 452 1 169 1
281 0 5 453 1 82 1 103 1 212 1 238 1
282 0 5 211 1 69 1 189 1 395 1 375 1
283 0 5 171 1 458 1 407 1 35 1 314 1
284 0 5 412 1 451 1 219 1 170 1 39 1
285 0 5 163 1 37 1 206 1 370 1 196 1
286 0 5 212 1 182 1 386 1 103 1 222 1
287 0 5 440 1 267 1 74 1 319 1 16 1
288 0 5 81 1 324 1 343 1 233 1 450 1
289 0 5 9 1 320 1 467 1 368 1 464 1
290 0 5 4 1 58 1 92 1 155 1 321 1
291 0 5 181 1 89 1 254 1 61 1 357 1
292 0 5 192 1 347 1 155 1 244 1 106 1
293 0 5 22 1 89 1 384 1 337 1 419 1
294 0 5 228 1 300 1 164 1 410 1 388 1
295 0 5 138 1 397 1 196 1 120 1 172 1
296 0 5 2 1 379 1 20 1 270 1 115 1
297 0 5 38 1 260 1 159 1 229 1 274 1
298 0 5 256 1 54 1 402 1 121 1 325 1
299 0 5 267 1 199 1 373 1 354 1 440 1
300 0 5 421 1 294 1 258 1 410 1 96 1
301 0 5 259 1 97 1 247 1 433 1 153 1
302 0 5 238 1 79 1 40 1 212 1 137 1
303 0 5 33 1 329 1 452 1 17 1 340 1
304 0 5 83 1 433 1 371 1 268 1 97 1
305 0 5 330 1 29 1 226 1 26 1 436 1
306 0 5 422 1 247 1 350 1 34 1 191 1
307 0 5 205 1 175 1 47 1 352 1 317 1
308 0 5 98 1 387 1 279 1 300 1 258 1
309 0 5 349 1 276 1 384 1 100 1 337 1
310 0 5 146 1 316 1 435 1 105 1 76 1
311 0 5 168 1 245 1 232 1 432 1 194 1
312 0 5 51 1 352 1 109 1 144 1 105 1
313 0 5 180 1 461 1 241 1 90 1 405 1
314 0 5 457 1 420 1 171 1 328 1 167 1
315 0 5 77 1 239 1 56 1 154 1 21 1
316 0 5 411 1 203 1 310 1 193 1 435 1
317 0 5 209 1 175 1 307 1 86 1 430 1
318 0 5 213 1 25 1 248 1 193 1 416 1
319 0 5 46 1 382 1 74 1 45 1 287 1
320 0 5 95 1 9 1 289 1 152 1 257 1
321 0 5 58 1 154 1 155 1 77 1 56 1
322 0 5 41 1 173 1 113 1 444 1 366 1
323 0 5 73 1 46 1 45 1 319 1 104 1
324 0 5 81 1 450 1 415 1 288 1 78 1
325 0 5 402 1 388 1 124 1 121 1 431 1
326 0 5 216 1 346 1 116 1 459 1 251 1
327 0 5 381 1 27 1 363 1 347 1 117 1
328 0 5 171 1 314 1 420 1 28 1 348 1
329 0 5 303 1 234 1 452 1 462 1 33 1
330 0 5 26 1 436 1 305 1 357 1 226 1
331 0 5 338 1 399 1 108 1 14 1 339 1
332 0 5 345 1 421 1 410 1 121 1 406 1
333 0 5 249 1 218 1 336 1 119 1 455 1
334 0 5 378 1 244 1 438 1 112 1 200 1
335 0 5 271 1 439 1 98 1 387 1 300 1
336 0 5 158 1 218 1 333 1 455 1 148 1
337 0 5 135 1 349 1 22 1 419 1 117 1
338 0 5 331 1 108 1 399 1 14 1 112 1
339 0 5 70 1 399 1 469 1 338 1 61 1
340 0 5 280 1 414 1 452 1 277 1 33 1
341 0 5 348 1 196 1 328 1 13 1 385 1
342 0 5 141 1 220 1 254 1 367 1 399 1
343 0 5 288 1 446 1 449 1 188 1 139 1
344 0 5 149 1 391 1 36 1 266 1 107 1
345 0 5 332 1 71 1 63 1 406 1 121 1
346 0 5 326 1 216 1 429 1 454 1 110 1
347 0 5 27 1 292 1 106 1 244 1 327 1
348 0 5 13 1 341 1 420 1 85 1 328 1
349 0 5 309 1 337 1 384 1 117 1 135 1
350 0 5 34 1 191 1 306 1 422 1 184 1
351 0 5 105 1 310 1 316 1 203 1 498 1
352 0 5 205 1 109 1 51 1 307 1 312 1
353 0 5 39 1 75 1 60 1 284 1 170 1
354 0 5 463 1 299 1 373 1 60 1 250 1
355 0 5 43 1 210 1 398 1 18 1 224 1
356 0 5 263 1 426 1 466 1 427 1 406 1
357 0 5 243 1 89 1 26 1 330 1 436 1
358 0 5 99 1 391 1 442 1 112 1 36 1
359 0 5 118 1 252 1 115 1 140 1 225 1
360 0 5 86 1 175 1 400 1 143 1 364 1
361 0 5 468 1 132 1 224 1 87 1 214 1
362 0 5 150 1 11 1 247 1 6 1 153 1
363 0 5 204 1 106 1 27 1 381 1 327 1
364 0 5 42 1 400 1 430 1 360 1 86 1
365 0 5 174 1 131 1 179 1 283 1 114 1
366 0 5 255 1 113 1 322 1 444 1 392 1
367 0 5 54 1 198 1 256 1 342 1 141 1
368 0 5 467 1 464 1 289 1 101 1 65 1
369 0 5 176 1 62 1 424 1 211 1 23 1
370 0 5 35 1 28 1 403 1 37 1 328 1
371 0 5 83 1 304 1 433 1 137 1 185 1
372 0 5 261 1 127 1 169 1 126 1 456 1
373 0 5 250 1 299 1 173 1 354 1 199 1
374 0 5 152 1 9 1 453 1 264 1 223 1
375 0 5 395 1 195 1 14 1 69 1 178 1
376 0 5 423 1 191 1 259 1 184 1 118 1
377 0 5 7 1 445 1 139 1 145 1 188 1
378 0 5 438 1 107 1 334 1 266 1 244 1
379 0 5 20 1 262 1 270 1 140 1 2 1
380 0 5 34 1 5 1 21 1 350 1 306 1
381 0 5 148 1 327 1 93 1 117 1 363 1
382 0 5 319 1 74 1 413 1 46 1 231 1
383 0 5 466 1 279 1 230 1 454 1 406 1
384 0 5 243 1 293 1 349 1 309 1 337 1
385 0 5 85 1 172 1 143 1 408 1 120 1
386 0 5 6 1 10 1 286 1 433 1 150 1
387 0 5 98 1 308 1 279 1 19 1 96 1
388 0 5 121 1 325 1 228 1 164 1 12 1
389 0 5 119 1 455 1 177 1 249 1 265 1
390 0 5 60 1 170 1 393 1 39 1 67 1
391 0 5 344 1 36 1 358 1 149 1 112 1
392 0 5 255 1 41 1 366 1 444 1 50 1
393 0 5 267 1 45 1 170 1 390 1 67 1
394 0 5 229 1 8 1 427 1 38 1 169 1
395 0 5 69 1 375 1 282 1 211 1 195 1
396 0 5 50 1 444 1 41 1 322 1 113 1
397 0 5 142 1 295 1 47 1 138 1 196 1
398 0 5 43 1 210 1 275 1 355 1 78 1
399 0 5 70 1 339 1 331 1 254 1 338 1
400 0 5 430 1 364 1 143 1 360 1 42 1
401 0 5 236 1 434 1 75 1 151 1 25 1
402 0 5 325 1 124 1 298 1 256 1 388 1
403 0 5 91 1 179 1 370 1 37 1 35 1
404 0 5 416 1 434 1 227 1 236 1 401 1
405 0 5 461 1 241 1 8 1 277 1 229 1
406 0 5 258 1 345 1 421 1 332 1 63 1
407 0 5 458 1 171 1 283 1 328 1 314 1
408 0 5 462 1 143 1 385 1 234 1 165 1
409 0 5 431 1 439 1 195 1 14 1 240 1
410 0 5 164 1 421 1 12 1 332 1 121 1
411 0 5 435 1 193 1 316 1 318 1 25 1
412 0 5 284 1 31 1 425 1 272 1 80 1
413 0 5 231 1 237 1 382 1 168 1 245 1
414 0 5 340 1 456 1 280 1 441 1 169 1
415 0 5 157 1 450 1 324 1 87 1 418 1
416 0 5 227 1 404 1 248 1 25 1 318 1
417 0 5 252 1 140 1 55 1 187 1 208 1
418 0 5 235 1 157 1 36 1 132 1 344 1
419 0 5 84 1 135 1 22 1 337 1 117 1
420 0 5 314 1 459 1 457 1 13 1 348 1
421 0 5 410 1 300 1 332 1 258 1 406 1
422 0 5 306 1 191 1 350 1 247 1 184 1
423 0 5 376 1 191 1 184 1 259 1 118 1
424 0 5 62 1 369 1 437 1 23 1 271 1
425 0 5 80 1 272 1 412 1 57 1 31 1
426 0 5 427 1 356 1 263 1 466 1 169 1
427 0 5 426 1 169 1 8 1 394 1 229 1
428 0 5 465 1 85 1 273 1 147 1 420 1
429 0 5 110 1 346 1 19 1 271 1 98 1
430 0 5 400 1 86 1 209 1 364 1 317 1
431 0 5 409 1 124 1 388 1 228 1 240 1
432 0 5 207 1 232 1 245 1 20 1 270 1
433 0 5 6 1 304 1 97 1 386 1 371 1
434 0 5 404 1 401 1 236 1 25 1 151 1
435 0 5 76 1 411 1 213 1 146 1 310 1
436 0 5 226 1 330 1 305 1 357 1 26 1
437 0 5 23 1 62 1 271 1 19 1 195 1
438 0 5 378 1 266 1 334 1 244 1 192 1
439 0 5 335 1 409 1 271 1 195 1 98 1
440 0 5 287 1 199 1 267 1 443 1 245 1
441 0 5 261 1 17 1 414 1 33 1 372 1
442 0 5 49 1 99 1 358 1 68 1 36 1
443 0 5 199 1 113 1 440 1 197 1 267 1
444 0 5 322 1 396 1 50 1 173 1 41 1
445 0 5 377 1 207 1 7 1 139 1 145 1
446 0 5 343 1 139 1 123 1 188 1 377 1
447 0 5 28 1 131 1 370 1 458 1 35 1
448 0 5 100 1 200 1 347 1 244 1 276 1
449 0 5 343 1 288 1 78 1 450 1 81 1
450 0 5 87 1 157 1 324 1 415 1 156 1
451 0 5 219 1 284 1 236 1 75 1 401 1
452 0 5 33 1 340 1 329 1 303 1 277 1
453 0 5 281 1 264 1 103 1 374 1 82 1
454 0 5 230 1 346 1 383 1 372 1 216 1
455 0 5 389 1 148 1 218 1 93 1 177 1
456 0 5 126 1 414 1 169 1 372 1 261 1
457 0 5 167 1 314 1 420 1 459 1 166 1
458 0 5 407 1 283 1 134 1 171 1 447 1
459 0 5 166 1 251 1 420 1 116 1 326 1
460 0 5 221 1 192 1 133 1 266 1 4 1
461 0 5 405 1 313 1 180 1 241 1 38 1
462 0 5 165 1 408 1 234 1 329 1 17 1
463 0 5 354 1 151 1 299 1 201 1 250 1
464 0 5 65 1 368 1 467 1 289 1 9 1
465 0 5 428 1 273 1 147 1 165 1 85 1
466 0 5 169 1 372 1 383 1 356 1 230 1
467 0 5 368 1 464 1 289 1 9 1 101 1
468 0 5 214 1 361 1 132 1 4 1 224 1
469 0 5 61 1 70 1 26 1 339 1 305 1
470 0 5 506 1 523 1 522 1 520 1 505 1
471 0 5 506 1 523 1 522 1 520 1 505 1
472 0 5 506 1 523 1 522 1 520 1 505 1
473 0 5 506 1 523 1 522 1 520 1 505 1
474 0 5 506 1 523 1 522 1 520 1 505 1
475 0 5 506 1 523 1 522 1 520 1 505 1
476 0 5 506 1 523 1 522 1 520 1 505 1
477 0 5 506 1 523 1 522 1 520 1 505 1
478 0 5 506 1 523 1 522 1 520 1 505 1
479 0 5 506 1 523 1 522 1 520 1 505 1
480 0 5 506 1 523 1 522 1 520 1 505 1
481 0 5 506 1 523 1 522 1 520 1 505 1
482 0 5 506 1 523 1 522 1 520 1 505 1
483 0 5 506 1 523 1 522 1 520 1 505 1
484 0 5 506 1 523 1 522 1 520 1 505 1
485 0 5 506 1 523 1 522 1 520 1 505 1
486 0 5 506 1 523 1 522 1 520 1 505 1
487 0 5 506 1 523 1 522 1 520 1 505 1
488 0 5 506 1 523 1 522 1 520 1 505 1
489 0 5 506 1 523 1 522 1 520 1 505 1
490 0 5 506 1 523 1 522 1 520 1 505 1
491 0 5 506 1 523 1 522 1 520 1 505 1
492 0 5 506 1 523 1 522 1 520 1 505 1
493 0 5 506 1 523 1 522 1 520 1 505 1
494 0 5 506 1 523 1 522 1 520 1 505 1
495 0 5 506 1 523 1 522 1 520 1 505 1
496 0 5 506 1 523 1 522 1 520 1 505 1
497 0 5 506 1 523 1 522 1 520 1 505 1
498 0 5 506 1 523 1 522 1 520 1 505 1
499 0 5 506 1 523 1 522 1 520 1 505 1
500 0 5 506 1 523 1 522 1 520 1 505 1
501 0 5 506 1 523 1 522 1 520 1 505 1
502 0 5 506 1 523 1 522 1 520 1 505 1
503 0 5 506 1 523 1 522 1 520 1 505 1
504 0 5 506 1 523 1 522 1 520 1 505 1
505 0 5 506 1 523 1 522 1 520 1 505 1
506 0 5 506 1 523 1 522 1 520 1 505 1
507 0 5 506 1 523 1 522 1 520 1 505 1
508 0 5 506 1 523 1 522 1 520 1 505 1
509 0 5 506 1 523 1 522 1 520 1 505 1
510 0 5 506 1 523 1 522 1 520 1 505 1
511 0 5 506 1 523 1 522 1 520 1 505 1
512 0 5 506 1 523 1 522 1 520 1 505 1
513 0 5 506 1 523 1 522 1 520 1 505 1
514 0 5 506 1 523 1 522 1 520 1 505 1
515 0 5 506 1 523 1 522 1 520 1 505 1
516 0 5 506 1 523 1 522 1 520 1 505 1
517 0 5 506 1 523 1 522 1 520 1 505 1
518 0 5 506 1 523 1 522 1 520 1 505 1
519 0 5 506 1 523 1 522 1 520 1 505 1
520 0 5 506 1 523 1 522 1 520 1 505 1
521 0 5 506 1 523 1 522 1 520 1 505 1
522 0 5 506 1 523 1 522 1 520 1 505 1
523 0 5 506 1 523 1 522 1 520 1 505 1
524 0 5 506 1 523 1 522 1 520 1 505 1
525 0 5 506 1 523 1 522 1 520 1 505 1
526 0 5 506 1 523 1 522 1 520 1 505 1
527 0 5 506 1 523 1 522 1 520 1 505 1
528 0 5 506 1 523 1 522 1 520 1 505 1
529 0 5 506 1 523 1 522 1 520 1 505 1
530 0 5 506 1 523 1 522 1 520 1 505 1
531 0 5 506 1 523 1 522 1 520 1 505 1
532 0 5 506 1 523 1 522 1 520 1 505 1
533 0 5 506 1 523 1 522 1 520 1 505 1
534 0 5 506 1 523 1 522 1 520 1 505 1
535 0 5 506 1 523 1 522 1 520 1 505 1
536 0 5 506 1 523 1 522 1 520 1 505 1
537 0 5 506 1 523 1 522 1 520 1 505 1
538 0 5 506 1 523 1 522 1 520 1 505 1
539 0 5 506 1 523 1 522 1 520 1 505 1
540 0 5 506 1 523 1 522 1 520 1 505 1
541 0 5 506 1 523 1 522 1 520 1 505 1
542 0 5 506 1 523 1 522 1 520 1 505 1
543 0 5 506 1 523 1 522 1 520 1 505 1
544 0 5 506 1 523 1 522 1 520 1 505 1
545 0 5 506 1 523 1 522 1 520 1 505 1
546 0 5 506 1 523 1 522 1 520 1 505 1
547 0 5 506 1 523 1 522 1 520 1 505 1
548 0 5 506 1 523 1 522 1 520 1 505 1
549 0 5 506 1 523 1 522 1 520 1 505 1
550 0 5 506 1 523 1 522 1 520 1 505 1
551 0 5 506 1 523 1 522 1 520 1 505 1
552 0 5 506 1 523 1 522 1 520 1 505 1
553 0 5 506 1 523 1 522 1 520 1 505 1
554 0 5 506 1 523 1 522 1 520 1 505 1
555 0 5 506 1 523 1 522 1 520 1 505 1
556 0 5 506 1 523 1 522 1 520 1 505 1
557 0 5 506 1 523 1 522 1 520 1 505 1
558 0 5 506 1 523 1 522 1 520 1 505 1
559 0 5 506 1 523 1 522 1 520 1 505 1
560 0 5 506 1 523 1 522 1 520 1 505 1
561 0 5 506 1 523 1 522 1 520 1 505 1
562 0 5 506 1 523 1 522 1 520 1 505 1
563 0 5 506 1 523 1 522 1 520 1 505 1
564 0 5 506 1 523 1 522 1 520 1 505 1
565 0 5 506 1 523 1 522 1 520 1 505 1
566 0 5 506 1 523 1 522 1 520 1 505 1
567 0 5 506 1 523 1 522 1 520 1 505 1
568 0 5 506 1 523 1 522 1 520 1 505 1
569 0 5 506 1 523 1 522 1 520 1 505 1
570 0 5 506 1 523 1 522 1 520 1 505 1
571 0 5 506 1 523 1 522 1 520 1 505 1
572 0 5 506 1 523 1 522 1 520 1 505 1
573 0 5 506 1 523 1 522 1 520 1 505 1
574 0 5 506 1 523 1 522 1 520 1 505 1
575 0 5 506 1 523 1 522 1 520 1 505 1
576 0 5 506 1 523 1 522 1 520 1 505 1
577 0 5 506 1 523 1 522 1 520 1 505 1
578 0 5 506 1 523 1 522 1 520 1 505 1
579 0 5 506 1 523 1 522 1 520 1 505 1
580 0 5 506 1 523 1 522 1 520 1 505 1
581 0 5 506 1 523 1 522 1 520 1 505 1
582 0 5 506 1 523 1 522 1 520 1 505 1
583 0 5 506 1 523 1 522 1 520 1 505 1
584 0 5 506 1 523 1 522 1 520 1 505 1
585 0 5 506 1 523 1 522 1 520 1 505 1
586 0 5 506 1 523 1 522 1 520 1 505 1
587 0 5 506 1 523 1 522 1 520 1 505 1
588 0 5 506 1 523 1 522 1 520 1 505 1
589 0 5 506 1 523 1 522 1 520 1 505 1
590 0 5 506 1 523 1 522 1 520 1 505 1
591 0 5 506 1 523 1 522 1 520 1 505 1
592 0 5 506 1 523 1 522 1 520 1 505 1
593 0 5 506 1 523 1 522 1 520 1 505 1
594 0 5 506 1 523 1 522 1 520 1 505 1
595 0 5 506 1 523 1 522 1 520 1 505 1
596 0 5 506 1 523 1 522 1 520 1 505 1
597 0 5 506 1 523 1 522 1 520 1 505 1
598 0 5 506 1 523 1 522 1 520 1 505 1
599 0 5 506 1 523 1 522 1 520 1 505 1
600 0 5 506 1 523 1 522 1 520 1 505 1
601 0 5 506 1 523 1 522 1 520 1 505 1
602 0 5 506 1 523 1 522 1 520 1 505 1
603 0 5 506 1 523 1 522 1 520 1 505 1
604 0 5 506 1 523 1 522 1 520 1 505 1
605 0 5 506 1 523 1 522 1 520 1 505 1
606 0 5 506 1 523 1 522 1 520 1 505 1
-1
EOF
